n= 20; m=10; 

85	6	59	87	12	90	83	92	63	74	86	22	54	65	55	19	7	35	78	32
10	75	14	53	49	40	19	25	54	5	37	56	18	31	30	2	5	15	71	46
49	89	59	42	13	56	27	13	29	20	30	26	98	12	48	54	93	29	51	33
32	80	9	14	11	46	86	55	2	78	55	68	49	12	56	53	20	63	79	1
84	37	38	99	99	23	27	68	58	32	32	79	17	29	17	90	91	24	37	78
78	91	61	5	6	61	73	31	71	23	22	58	72	80	98	81	2	75	18	86
6	41	6	43	61	55	33	57	45	23	40	20	23	8	7	60	17	4	27	46
74	70	84	63	72	78	33	87	3	28	53	47	80	51	63	60	70	39	33	5
26	92	20	61	91	58	70	20	86	36	41	77	46	79	22	20	96	75	1	37
49	89	59	42	13	56	27	13	29	20	30	26	98	12	48	54	93	29	51	33





																			
																			
																			
																			
																			
																			
																			
																			
																			
															
																			
																			
																			
																			
																			
																			
																			
																			
																			
															
